50
23125

978 365
9 579
546 943
46 505
726 642
911 174
752 838
509 844
698 882
699 151
792 242
871 424
268 424
249 907
678 585
403 687
576 586
93 648
677 628
34 112
773 304
991 741
767 27
536 2
871 333
643 561
678 56
276 44
399 119
454 9
989 527
551 708
139 870
761 891
932 817
606 539
201 418
980 27
815 385
698 22
432 454
62 596
412 439
262 766
223 436
914 659
217 163
767 248
647 65
753 614
